data/solutions/recovery/degenerate/moderate/flexible/degenerate_moderate_instance36/12.sol
Elapsed time: 16.76
Upper bound: 1410073559.0
Planning weighted value: 37019289009.0
C[0]=1410073559.0
C[1]=1409991003.0
C[2]=1409970574.0
C[3]=1409967878.0
C[4]=0.0
y[0]=2
y[1]=1
y[2]=2
y[3]=1
y[4]=3
y[5]=2
y[6]=3
y[7]=0
y[8]=3
y[9]=1
y[10]=0
y[11]=3
y[12]=0
y[13]=0
y[14]=1
y[15]=1
y[16]=1
y[17]=2
y[18]=3
y[19]=2
y[20]=2
y[21]=2
y[22]=1
y[23]=3
y[24]=2
y[25]=0
y[26]=2
y[27]=2
y[28]=0
y[29]=3
y[30]=3
y[31]=1
y[32]=0
y[33]=0
y[34]=1
y[35]=3
y[36]=1
y[37]=2
y[38]=0
y[39]=2
y[40]=0
y[41]=1
y[42]=3
y[43]=1
y[44]=0
y[45]=1
