data/solutions/recovery/degenerate/moderate/flexible/degenerate_moderate_instance36/12.log

Log started (V12.6.3.0) Sat Apr 21 11:15:54 2018

New value for default parallel thread count: 1

Problem '/tmp/tmpcpKvKj.pyomo.lp' read.
Read time = 0.00 sec. (0.11 ticks)

Problem name         : /tmp/tmpcpKvKj.pyomo.lp
Objective sense      : Minimize
Variables            :     237  [Nneg: 1,  Binary: 230,  General Integer: 6]
Objective nonzeros   :       1
Linear constraints   :     104  [Less: 51,  Equal: 53]
  Nonzeros           :    7330
  RHS nonzeros       :      93

Variables            : Min LB: 0.000000         Max UB: 1.000000       
Objective nonzeros   : Min   : 1.000000         Max   : 1.000000       
Linear constraints   :
  Nonzeros           : Min   : 1.000000         Max   : 2.657465e+08   
  RHS nonzeros       : Min   : 1.000000         Max   : 5.000000       
Tried aggregator 1 time.
MIP Presolve eliminated 49 rows and 48 columns.
Reduced MIP has 55 rows, 189 columns, and 491 nonzeros.
Reduced MIP has 184 binaries, 5 generals, 0 SOSs, and 0 indicators.
Presolve time = 0.00 sec. (1.35 ticks)
Found incumbent of value 2.5848992e+09 after 0.00 sec. (1.59 ticks)
Probing time = 0.00 sec. (0.37 ticks)
Tried aggregator 1 time.
Reduced MIP has 55 rows, 189 columns, and 491 nonzeros.
Reduced MIP has 184 binaries, 5 generals, 0 SOSs, and 0 indicators.
Presolve time = 0.00 sec. (0.31 ticks)
Probing time = 0.00 sec. (0.37 ticks)
Clique table members: 46.
MIP emphasis: balance optimality and feasibility.
MIP search method: dynamic search.
Parallel mode: none, using 1 thread.
Root relaxation solution time = 0.00 sec. (0.90 ticks)

        Nodes                                         Cuts/
   Node  Left     Objective  IInf  Best Integer    Best Bound    ItCnt     Gap

*     0+    0                       2.58490e+09        0.0000           100.00%
      0     0   1.41000e+09    13   2.58490e+09   1.41000e+09      152   45.45%
*     0+    0                       1.46148e+09   1.41000e+09             3.52%
*     0+    0                       1.44649e+09   1.41000e+09             2.52%
*     0+    0                       1.43950e+09   1.41000e+09             2.05%
*     0+    0                       1.42487e+09   1.41000e+09             1.04%
*     0+    0                       1.41626e+09   1.41000e+09             0.44%
      0     2   1.41000e+09     8   1.41626e+09   1.41000e+09      153    0.44%
Elapsed time = 0.02 sec. (10.51 ticks, tree = 0.01 MB, solutions = 6)
*   393   281      integral     0   1.41433e+09   1.41000e+09      992    0.31%
*   493+  307                       1.41366e+09   1.41000e+09             0.26%
*   493+  303                       1.41284e+09   1.41000e+09             0.20%
*   605+  383                       1.41274e+09   1.41000e+09             0.19%
*   661   232      integral     0   1.41236e+09   1.41000e+09     1905    0.17%
*   662   163      integral     0   1.41118e+09   1.41000e+09     1906    0.08%
*   706+  110                       1.41072e+09   1.41000e+09             0.05%
*   706+   88                       1.41049e+09   1.41000e+09             0.03%
   1358   160        cutoff         1.41049e+09   1.41000e+09     4128    0.03%
   1359   161   1.41000e+09     6   1.41049e+09   1.41000e+09     4129    0.03%
   1360   162   1.41000e+09     6   1.41049e+09   1.41000e+09     4130    0.03%
   1361   163   1.41000e+09     6   1.41049e+09   1.41000e+09     4133    0.03%
   1362   162    infeasible         1.41049e+09   1.41000e+09     4133    0.03%
   1363   161        cutoff         1.41049e+09   1.41000e+09     4137    0.03%
   1364   160        cutoff         1.41049e+09   1.41000e+09     4177    0.03%
   1365   159        cutoff         1.41049e+09   1.41000e+09     4195    0.03%
   1366   160   1.41000e+09     5   1.41049e+09   1.41000e+09     4198    0.03%
*  1506+  199                       1.41040e+09   1.41000e+09             0.03%
*  1606+  208                       1.41029e+09   1.41000e+09             0.02%
*  2406+  271                       1.41026e+09   1.41000e+09             0.02%
   4127   459        cutoff         1.41026e+09   1.41000e+09    13901    0.02%
Elapsed time = 1.11 sec. (964.30 ticks, tree = 0.14 MB, solutions = 17)
* 10366+ 1699                       1.41022e+09   1.41000e+09             0.02%
  11161  1744        cutoff         1.41022e+09   1.41000e+09    38372    0.02%
  11162  1743        cutoff         1.41022e+09   1.41000e+09    38380    0.02%
  11163  1742        cutoff         1.41022e+09   1.41000e+09    38393    0.02%
  11164  1741        cutoff         1.41022e+09   1.41000e+09    38397    0.02%
  11165  1740        cutoff         1.41022e+09   1.41000e+09    38402    0.02%
  11166  1739        cutoff         1.41022e+09   1.41000e+09    38409    0.02%
  11167  1738        cutoff         1.41022e+09   1.41000e+09    38413    0.02%
  11168  1737        cutoff         1.41022e+09   1.41000e+09    38418    0.02%
  11169  1736        cutoff         1.41022e+09   1.41000e+09    38424    0.02%
  11170  1735        cutoff         1.41022e+09   1.41000e+09    38427    0.02%
Elapsed time = 2.22 sec. (1920.79 ticks, tree = 0.54 MB, solutions = 18)
  19304  2896    infeasible         1.41022e+09   1.41000e+09    67844    0.02%
  19305  2897   1.41000e+09     8   1.41022e+09   1.41000e+09    67846    0.02%
  19306  2898   1.41000e+09     8   1.41022e+09   1.41000e+09    67847    0.02%
  19307  2897        cutoff         1.41022e+09   1.41000e+09    67853    0.02%
  19308  2898   1.41000e+09     8   1.41022e+09   1.41000e+09    67854    0.02%
  19309  2899   1.41000e+09     8   1.41022e+09   1.41000e+09    67856    0.02%
  19310  2900   1.41000e+09     8   1.41022e+09   1.41000e+09    67857    0.02%
  19311  2901   1.41000e+09     6   1.41022e+09   1.41000e+09    67861    0.02%
  19312  2900        cutoff         1.41022e+09   1.41000e+09    67869    0.02%
  19313  2901   1.41000e+09     6   1.41022e+09   1.41000e+09    67871    0.02%
Elapsed time = 3.32 sec. (2875.20 ticks, tree = 0.94 MB, solutions = 18)
  27469  4034   1.41000e+09     8   1.41022e+09   1.41000e+09    96881    0.02%
  27470  4033    infeasible         1.41022e+09   1.41000e+09    96885    0.02%
  27471  4034   1.41000e+09     6   1.41022e+09   1.41000e+09    96889    0.02%
  27472  4033        cutoff         1.41022e+09   1.41000e+09    96894    0.02%
  27473  4032        cutoff         1.41022e+09   1.41000e+09    96897    0.02%
  27474  4033   1.41000e+09     5   1.41022e+09   1.41000e+09    96899    0.02%
  27475  4034   1.41000e+09     8   1.41022e+09   1.41000e+09    96903    0.02%
  27476  4035   1.41000e+09     8   1.41022e+09   1.41000e+09    96906    0.02%
  27477  4036   1.41000e+09     6   1.41022e+09   1.41000e+09    96908    0.02%
  27478  4037   1.41000e+09     8   1.41022e+09   1.41000e+09    96910    0.02%
Elapsed time = 4.42 sec. (3830.55 ticks, tree = 1.38 MB, solutions = 18)
  35830  5233   1.41000e+09     6   1.41022e+09   1.41000e+09   128869    0.02%
  35831  5234   1.41000e+09     8   1.41022e+09   1.41000e+09   128871    0.02%
  35832  5235   1.41000e+09     5   1.41022e+09   1.41000e+09   128875    0.02%
  35833  5236   1.41000e+09     6   1.41022e+09   1.41000e+09   128877    0.02%
  35834  5237   1.41000e+09     6   1.41022e+09   1.41000e+09   128879    0.02%
  35835  5238   1.41000e+09     6   1.41022e+09   1.41000e+09   128881    0.02%
  35836  5239   1.41000e+09     6   1.41022e+09   1.41000e+09   128882    0.02%
  35837  5240   1.41000e+09     6   1.41022e+09   1.41000e+09   128883    0.02%
  35838  5241   1.41000e+09     6   1.41022e+09   1.41000e+09   128884    0.02%
  35839  5242   1.41000e+09     6   1.41022e+09   1.41000e+09   128886    0.02%
Elapsed time = 5.52 sec. (4784.56 ticks, tree = 1.73 MB, solutions = 18)
  43162  5499        cutoff         1.41022e+09   1.41000e+09   158960    0.02%
  43163  5498        cutoff         1.41022e+09   1.41000e+09   158965    0.02%
  43164  5497        cutoff         1.41022e+09   1.41000e+09   158968    0.02%
  43165  5496        cutoff         1.41022e+09   1.41000e+09   158971    0.02%
  43166  5495        cutoff         1.41022e+09   1.41000e+09   158974    0.02%
  43167  5494        cutoff         1.41022e+09   1.41000e+09   158982    0.02%
  43168  5494   1.41000e+09     6   1.41022e+09   1.41000e+09   158986    0.02%
  43169  5495   1.41000e+09     6   1.41022e+09   1.41000e+09   158987    0.02%
  43170  5496   1.41000e+09     8   1.41022e+09   1.41000e+09   158989    0.02%
  43171  5497   1.41000e+09     6   1.41022e+09   1.41000e+09   158990    0.02%
Elapsed time = 6.61 sec. (5740.19 ticks, tree = 1.80 MB, solutions = 18)
* 43600  5738      integral     0   1.41020e+09   1.41000e+09   160052    0.01%
  51473  6639   1.41017e+09     4   1.41020e+09   1.41000e+09   184443    0.01%
  51474  6640   1.41017e+09     4   1.41020e+09   1.41000e+09   184444    0.01%
  51475  6639        cutoff         1.41020e+09   1.41000e+09   184452    0.01%
  51476  6638    infeasible         1.41020e+09   1.41000e+09   184452    0.01%
  51477  6639   1.41000e+09     6   1.41020e+09   1.41000e+09   184453    0.01%
  51478  6640   1.41000e+09     6   1.41020e+09   1.41000e+09   184454    0.01%
  51479  6641   1.41000e+09     6   1.41020e+09   1.41000e+09   184455    0.01%
  51480  6642   1.41000e+09     6   1.41020e+09   1.41000e+09   184456    0.01%
  51481  6643   1.41000e+09     6   1.41020e+09   1.41000e+09   184457    0.01%
  51482  6642        cutoff         1.41020e+09   1.41000e+09   184464    0.01%
Elapsed time = 7.73 sec. (6694.75 ticks, tree = 2.14 MB, solutions = 19)
* 59294  7634      integral     0   1.41020e+09   1.41000e+09   206612    0.01%
  59784  7694   1.41000e+09     8   1.41020e+09   1.41000e+09   207970    0.01%
  59785  7695   1.41000e+09     6   1.41020e+09   1.41000e+09   207972    0.01%
  59786  7694        cutoff         1.41020e+09   1.41000e+09   207979    0.01%
  59787  7693        cutoff         1.41020e+09   1.41000e+09   207988    0.01%
  59788  7692        cutoff         1.41020e+09   1.41000e+09   207998    0.01%
  59789  7691        cutoff         1.41020e+09   1.41000e+09   208003    0.01%
  59790  7692   1.41000e+09     8   1.41020e+09   1.41000e+09   208006    0.01%
  59791  7693   1.41000e+09     6   1.41020e+09   1.41000e+09   208009    0.01%
  59792  7694   1.41000e+09     6   1.41020e+09   1.41000e+09   208011    0.01%
  59793  7693        cutoff         1.41020e+09   1.41000e+09   208014    0.01%
Elapsed time = 8.87 sec. (7650.19 ticks, tree = 2.48 MB, solutions = 20)
  69245 10820   1.41000e+09     5   1.41020e+09   1.41000e+09   235950    0.01%
  69246 10821   1.41000e+09     7   1.41020e+09   1.41000e+09   235952    0.01%
  69247 10822   1.41000e+09     6   1.41020e+09   1.41000e+09   235954    0.01%
  69248 10823   1.41000e+09     6   1.41020e+09   1.41000e+09   235957    0.01%
  69249 10824   1.41000e+09     6   1.41020e+09   1.41000e+09   235958    0.01%
  69250 10825   1.41000e+09     6   1.41020e+09   1.41000e+09   235959    0.01%
  69251 10826   1.41000e+09     6   1.41020e+09   1.41000e+09   235960    0.01%
  69252 10827   1.41000e+09     6   1.41020e+09   1.41000e+09   235961    0.01%
  69253 10828   1.41000e+09     8   1.41020e+09   1.41000e+09   235963    0.01%
  69254 10829   1.41000e+09     5   1.41020e+09   1.41000e+09   235964    0.01%
Elapsed time = 9.99 sec. (8604.99 ticks, tree = 3.65 MB, solutions = 20)
  76689 11691        cutoff         1.41020e+09   1.41000e+09   264895    0.01%
  76690 11690        cutoff         1.41020e+09   1.41000e+09   264903    0.01%
  76691 11691   1.41000e+09     8   1.41020e+09   1.41000e+09   264906    0.01%
  76692 11692   1.41000e+09     6   1.41020e+09   1.41000e+09   264907    0.01%
  76693 11693   1.41000e+09     6   1.41020e+09   1.41000e+09   264908    0.01%
  76694 11694   1.41000e+09     6   1.41020e+09   1.41000e+09   264909    0.01%
  76695 11695   1.41000e+09     6   1.41020e+09   1.41000e+09   264910    0.01%
  76696 11696   1.41000e+09     6   1.41020e+09   1.41000e+09   264911    0.01%
  76697 11695        cutoff         1.41020e+09   1.41000e+09   264919    0.01%
* 84917 12198      integral     0   1.41016e+09   1.41000e+09   295328    0.01%
  99647 14055   1.41000e+09     5   1.41016e+09   1.41000e+09   350056    0.01%
Elapsed time = 14.39 sec. (12419.75 ticks, tree = 4.60 MB, solutions = 21)
*117098 15772      integral     0   1.41007e+09   1.41000e+09   412213    0.01%

Mixed integer rounding cuts applied:  2

Root node processing (before b&c):
  Real time             =    0.02 sec. (10.54 ticks)
Sequential b&c:
  Real time             =   16.69 sec. (14404.86 ticks)
                          ------------
Total (root+branch&cut) =   16.71 sec. (14415.40 ticks)

Solution pool: 22 solutions saved.

MIP - Integer optimal, tolerance (0.0001/1e-06):  Objective =  1.4100735590e+09
Current MIP best bound =  1.4100007540e+09 (gap = 72805, 0.01%)
Solution time =   16.71 sec.  Iterations = 412213  Nodes = 117099 (15772)
Deterministic time = 14415.40 ticks  (862.82 ticks/sec)


Incumbent solution written to file '/tmp/tmp8b74Ji.cplex.sol'.
